NAME : CHRVRP
COMMENT : master instance for CHRVRP
EDGE_WEIGHT_TYPE : EUC_2D
NODE_COORD_SECTION
V100 40.769e+03 71.077e+03
V101 5.537e+03 96.579e+03
V102 78.853e+03 0.422e+03
S0 50.837e+03 68.389e+03
S1 66.390e+03 40.535e+03
D10 77.132e+03 68.536e+03
D11 2.075e+03 95.339e+03
D12 63.365e+03 0.395e+03
D13 74.880e+03 51.219e+03
D14 49.851e+03 81.262e+03
D15 22.480e+03 61.253e+03
D16 19.806e+03 72.176e+03
D17 76.053e+03 29.188e+03
D18 16.911e+03 91.777e+03
D19 8.834e+03 71.458e+03
EOF
